pair_style lj/cut 19.32
pair_modify shift yes
pair_coeff * * 1.129989 4.700000 9.870000

pair_coeff 1 1 1.129989 4.700000 5.275572
pair_coeff 2 2 1.129989 4.700000 5.275572
pair_coeff 3 3 1.129989 4.700000 5.275572
pair_coeff 4 4 1.129989 4.700000 5.275572
pair_coeff 5 5 1.129989 4.700000 5.275572
pair_coeff 6 6 1.129989 4.700000 5.275572
pair_coeff 7 7 1.129989 4.700000 5.275572
pair_coeff 8 8 1.129989 4.700000 5.275572
pair_coeff 9 9 1.129989 4.700000 5.275572
pair_coeff 10 10 1.129989 4.700000 5.275572
pair_coeff 11 11 1.129989 4.700000 5.275572
pair_coeff 12 12 1.129989 4.700000 5.275572
pair_coeff 13 13 1.129989 4.700000 5.275572
pair_coeff 14 14 1.129989 4.700000 5.275572
pair_coeff 15 15 1.129989 4.700000 5.275572
pair_coeff 16 16 1.129989 4.700000 5.275572
pair_coeff 17 17 1.129989 4.700000 5.275572
pair_coeff 18 18 1.129989 4.700000 5.275572
pair_coeff 19 19 1.129989 4.700000 5.275572
pair_coeff 20 20 1.129989 4.700000 5.275572
pair_coeff 21 21 1.129989 4.700000 5.275572
pair_coeff 22 22 1.129989 4.700000 5.275572
pair_coeff 23 23 1.129989 4.700000 5.275572
pair_coeff 24 24 1.129989 4.700000 5.275572
pair_coeff 25 25 1.129989 4.700000 5.275572
pair_coeff 26 26 1.129989 4.700000 5.275572
pair_coeff 27 27 1.129989 4.700000 5.275572
pair_coeff 28 28 1.129989 4.700000 5.275572
pair_coeff 29 29 1.129989 4.700000 5.275572
pair_coeff 30 30 1.129989 4.700000 5.275572
pair_coeff 31 31 1.129989 4.700000 5.275572
pair_coeff 32 32 1.129989 4.700000 5.275572
pair_coeff 33 33 1.129989 4.700000 5.275572
pair_coeff 34 34 1.129989 4.700000 5.275572
pair_coeff 35 35 1.129989 4.700000 5.275572
pair_coeff 36 36 1.129989 4.700000 5.275572
pair_coeff 37 37 1.129989 4.700000 5.275572
pair_coeff 38 38 1.129989 4.700000 5.275572
pair_coeff 39 39 1.129989 4.700000 5.275572
pair_coeff 40 40 1.129989 4.700000 5.275572
pair_coeff 41 41 1.129989 4.700000 5.275572
pair_coeff 42 42 1.129989 4.700000 5.275572
pair_coeff 43 43 1.129989 4.700000 5.275572
pair_coeff 44 44 1.129989 4.700000 5.275572
pair_coeff 45 45 1.129989 4.700000 5.275572
pair_coeff 46 46 1.129989 4.700000 5.275572
pair_coeff 47 47 1.129989 4.700000 5.275572
pair_coeff 48 48 1.129989 4.700000 5.275572
pair_coeff 49 49 1.129989 4.700000 5.275572
pair_coeff 50 50 1.129989 4.700000 5.275572
pair_coeff 51 51 1.129989 4.700000 5.275572
pair_coeff 52 52 1.129989 4.700000 5.275572
pair_coeff 53 53 1.129989 4.700000 5.275572
pair_coeff 54 54 1.129989 4.700000 5.275572
pair_coeff 55 55 1.129989 4.700000 5.275572
pair_coeff 56 56 1.129989 4.700000 5.275572
pair_coeff 57 57 1.129989 4.700000 5.275572
pair_coeff 58 58 1.129989 4.700000 5.275572
pair_coeff 59 59 1.129989 4.700000 5.275572
pair_coeff 60 60 1.129989 4.700000 5.275572
pair_coeff 61 61 1.129989 4.700000 5.275572
pair_coeff 62 62 1.129989 4.700000 5.275572
pair_coeff 63 63 1.129989 4.700000 5.275572
pair_coeff 64 64 1.129989 4.700000 5.275572

pair_coeff * 65 4.519956 6.950000 14.595000
pair_coeff 65 65 0.282497 9.200000 19.320000

