pair_style hybrid lj/cut 19.32 soft 10.0
pair_modify shift yes
pair_coeff * * lj/cut 1.129989 4.700000 9.870000

pair_coeff 1 1 lj/cut 1.129989 4.700000 5.275572
pair_coeff 2 2 lj/cut 1.129989 4.700000 5.275572
pair_coeff 3 3 lj/cut 1.129989 4.700000 5.275572
pair_coeff 4 4 lj/cut 1.129989 4.700000 5.275572
pair_coeff 5 5 lj/cut 1.129989 4.700000 5.275572
pair_coeff 6 6 lj/cut 1.129989 4.700000 5.275572
pair_coeff 7 7 lj/cut 1.129989 4.700000 5.275572
pair_coeff 8 8 lj/cut 1.129989 4.700000 5.275572
pair_coeff 9 9 lj/cut 1.129989 4.700000 5.275572
pair_coeff 10 10 lj/cut 1.129989 4.700000 5.275572
pair_coeff 11 11 lj/cut 1.129989 4.700000 5.275572
pair_coeff 12 12 lj/cut 1.129989 4.700000 5.275572
pair_coeff 13 13 lj/cut 1.129989 4.700000 5.275572
pair_coeff 14 14 lj/cut 1.129989 4.700000 5.275572
pair_coeff 15 15 lj/cut 1.129989 4.700000 5.275572
pair_coeff 16 16 lj/cut 1.129989 4.700000 5.275572
pair_coeff 17 17 lj/cut 1.129989 4.700000 5.275572
pair_coeff 18 18 lj/cut 1.129989 4.700000 5.275572
pair_coeff 19 19 lj/cut 1.129989 4.700000 5.275572
pair_coeff 20 20 lj/cut 1.129989 4.700000 5.275572
pair_coeff 21 21 lj/cut 1.129989 4.700000 5.275572
pair_coeff 22 22 lj/cut 1.129989 4.700000 5.275572
pair_coeff 23 23 lj/cut 1.129989 4.700000 5.275572
pair_coeff 24 24 lj/cut 1.129989 4.700000 5.275572
pair_coeff 25 25 lj/cut 1.129989 4.700000 5.275572
pair_coeff 26 26 lj/cut 1.129989 4.700000 5.275572
pair_coeff 27 27 lj/cut 1.129989 4.700000 5.275572
pair_coeff 28 28 lj/cut 1.129989 4.700000 5.275572
pair_coeff 29 29 lj/cut 1.129989 4.700000 5.275572
pair_coeff 30 30 lj/cut 1.129989 4.700000 5.275572
pair_coeff 31 31 lj/cut 1.129989 4.700000 5.275572
pair_coeff 32 32 lj/cut 1.129989 4.700000 5.275572
pair_coeff 33 33 lj/cut 1.129989 4.700000 5.275572
pair_coeff 34 34 lj/cut 1.129989 4.700000 5.275572
pair_coeff 35 35 lj/cut 1.129989 4.700000 5.275572
pair_coeff 36 36 lj/cut 1.129989 4.700000 5.275572
pair_coeff 37 37 lj/cut 1.129989 4.700000 5.275572
pair_coeff 38 38 lj/cut 1.129989 4.700000 5.275572
pair_coeff 39 39 lj/cut 1.129989 4.700000 5.275572
pair_coeff 40 40 lj/cut 1.129989 4.700000 5.275572
pair_coeff 41 41 lj/cut 1.129989 4.700000 5.275572
pair_coeff 42 42 lj/cut 1.129989 4.700000 5.275572
pair_coeff 43 43 lj/cut 1.129989 4.700000 5.275572
pair_coeff 44 44 lj/cut 1.129989 4.700000 5.275572
pair_coeff 45 45 lj/cut 1.129989 4.700000 5.275572
pair_coeff 46 46 lj/cut 1.129989 4.700000 5.275572
pair_coeff 47 47 lj/cut 1.129989 4.700000 5.275572
pair_coeff 48 48 lj/cut 1.129989 4.700000 5.275572
pair_coeff 49 49 lj/cut 1.129989 4.700000 5.275572
pair_coeff 50 50 lj/cut 1.129989 4.700000 5.275572
pair_coeff 51 51 lj/cut 1.129989 4.700000 5.275572
pair_coeff 52 52 lj/cut 1.129989 4.700000 5.275572
pair_coeff 53 53 lj/cut 1.129989 4.700000 5.275572
pair_coeff 54 54 lj/cut 1.129989 4.700000 5.275572
pair_coeff 55 55 lj/cut 1.129989 4.700000 5.275572
pair_coeff 56 56 lj/cut 1.129989 4.700000 5.275572
pair_coeff 57 57 lj/cut 1.129989 4.700000 5.275572
pair_coeff 58 58 lj/cut 1.129989 4.700000 5.275572
pair_coeff 59 59 lj/cut 1.129989 4.700000 5.275572
pair_coeff 60 60 lj/cut 1.129989 4.700000 5.275572
pair_coeff 61 61 lj/cut 1.129989 4.700000 5.275572
pair_coeff 62 62 lj/cut 1.129989 4.700000 5.275572
pair_coeff 63 63 lj/cut 1.129989 4.700000 5.275572
pair_coeff 64 64 lj/cut 1.129989 4.700000 5.275572

pair_coeff * 65 lj/cut 4.519956 5.400000 11.340000
pair_coeff 65 65 lj/cut 0.282497 6.100000 12.810000
pair_coeff * 65 soft 0.5
fix SphSP all adapt 1 pair soft a * 65 v_prefactor
